2403201
2011602
1007601
3012601
1001210
2009602
2503220
1021701
2008101
2009601
2022510
2018110
1302210
2014601
2201231
2201230
3008110
3008611
2021110
3012602
3203110
3303110
2201220
2007601
2301210
4001110
3010601
1012110
4105210
5004601
2101210
2001110
2001611
1007602
2503210
2012210
3001110
2021210
1007603
2002110
2002610
5101110
4007110
4104610
4204612
5004602
2017601
1003110
1003611
2011601
5002201
1009710
2015110
2018611
2014602
1006110
